Reading model...
...model read.
creating competitive generators file...
...competitive generators recorded.
Loading data...
.. real-time data read.
Compiling instance...
...instance created.
Creating Offer Mitigation (model will solve as dispatch if TRUE)...
...storage offer mitigation file created
Converting model to MPEC...
...converted
NOTE: initial MIP solve with only storage competitive to get feasible solution
Solving...

Welcome to IBM(R) ILOG(R) CPLEX(R) Interactive Optimizer 12.9.0.0
  with Simplex, Mixed Integer & Barrier Optimizers
5725-A06 5725-A29 5724-Y48 5724-Y49 5724-Y54 5724-Y55 5655-Y21
Copyright IBM Corp. 1988, 2019.  All Rights Reserved.

Type 'help' for a list of available commands.
Type 'help' followed by a command name for more
information on commands.

CPLEX> Logfile 'cplex.log' closed.
Logfile 'C:\Users\llavin\Desktop\test826\logs\tmpebqrffzc.cplex.log' open.
CPLEX> New value for parallel optimization mode: -1
CPLEX> New value for mixed integer optimality gap tolerance: 0.01
CPLEX> New value for feasibility tolerance: 1e-09
CPLEX> New value for deterministic time limit in ticks: 150000
CPLEX> Problem 'C:\Users\llavin\Desktop\test826\logs\tmpiiri1zcr.pyomo.lp' read.
Read time = 0.53 sec. (28.82 ticks)
CPLEX> Problem name         : C:\Users\llavin\Desktop\test826\logs\tmpiiri1zcr.pyomo.lp
Objective sense      : Maximize
Variables            :  107783  [Nneg: 1,  Box: 44058,  Free: 8928,
                                 Binary: 54796]
Objective nonzeros   :   17377
Linear constraints   :  246903  [Less: 82866,  Greater: 118424,  Equal: 45613]
  Nonzeros           :  618269
  RHS nonzeros       :  134881

Variables            : Min LB: -100000.0        Max UB: 1000000.       
Objective nonzeros   : Min   : 0.1944444        Max   : 208.3333       
Linear constraints   :
  Nonzeros           : Min   : 0.1944444        Max   : 1000000.       
  RHS nonzeros       : Min   : 0.1944444        Max   : 1000000.       
CPLEX> CPXPARAM_Parallel                                -1
CPXPARAM_Simplex_Tolerances_Feasibility          1.0000000000000001e-09
CPXPARAM_DetTimeLimit                            150000
CPXPARAM_MIP_Tolerances_MIPGap                   0.01
Tried aggregator 3 times.
MIP Presolve eliminated 182851 rows and 42661 columns.
MIP Presolve added 5998 rows and 0 columns.
MIP Presolve modified 49692 coefficients.
Aggregator did 25662 substitutions.
Reduced MIP has 44388 rows, 37828 columns, and 122938 nonzeros.
Reduced MIP has 14878 binaries, 0 generals, 0 SOSs, and 0 indicators.
Presolve time = 0.59 sec. (346.45 ticks)
Probing fixed 868 vars, tightened 10178 bounds.
Probing time = 0.33 sec. (13.85 ticks)
Tried aggregator 2 times.
MIP Presolve eliminated 1928 rows and 1736 columns.
MIP Presolve modified 11555 coefficients.
Aggregator did 48 substitutions.
Reduced MIP has 42412 rows, 36044 columns, and 117202 nonzeros.
Reduced MIP has 14010 binaries, 0 generals, 0 SOSs, and 0 indicators.
Presolve time = 0.22 sec. (200.38 ticks)
Probing fixed 0 vars, tightened 4434 bounds.
Probing time = 0.42 sec. (16.28 ticks)
Clique table members: 69751.
MIP emphasis: balance optimality and feasibility.
MIP search method: dynamic search.
Parallel mode: opportunistic, using up to 32 threads.
Root relaxation solution time = 0.75 sec. (1280.58 ticks)

        Nodes                                         Cuts/
   Node  Left     Objective  IInf  Best Integer    Best Bound    ItCnt     Gap

      0     0        0.0000     2                      0.0000     7350         
*     0+    0                            0.0000        0.0000             0.00%
      0     0        cutoff              0.0000        0.0000     7350    0.00%
Elapsed time = 2.95 sec. (2237.31 ticks, tree = 0.01 MB, solutions = 1)

Root node processing (before b&c):
  Real time             =    2.97 sec. (2241.08 ticks)
Parallel b&c, 32 threads:
  Real time             =    0.00 sec. (0.00 ticks)
  Sync time (average)   =    0.00 sec.
  Wait time (average)   =    0.00 sec.
                          ------------
Total (root+branch&cut) =    2.97 sec. (2241.08 ticks)

Solution pool: 1 solution saved.

MIP - Integer optimal solution:  Objective =  0.0000000000e+00
Solution time =    3.00 sec.  Iterations = 7350  Nodes = 0
Deterministic time = 2241.39 ticks  (747.13 ticks/sec)

CPLEX> Incumbent solution written to file 'C:\Users\llavin\Desktop\test826\logs\tmp70b_uuio.cplex.sol'.
CPLEX> NOTE: no warmstart specified for MIP iteration, default behavior is true
NOTE: resolving with all competitive generators using storage-only solution to warmstart
Solving...

Welcome to IBM(R) ILOG(R) CPLEX(R) Interactive Optimizer 12.9.0.0
  with Simplex, Mixed Integer & Barrier Optimizers
5725-A06 5725-A29 5724-Y48 5724-Y49 5724-Y54 5724-Y55 5655-Y21
Copyright IBM Corp. 1988, 2019.  All Rights Reserved.

Type 'help' for a list of available commands.
Type 'help' followed by a command name for more
information on commands.

CPLEX> Logfile 'cplex.log' closed.
Logfile 'C:\Users\llavin\Desktop\test826\logs\tmp355q3z0t.cplex.log' open.
CPLEX> New value for parallel optimization mode: -1
CPLEX> New value for mixed integer optimality gap tolerance: 0.01
CPLEX> New value for feasibility tolerance: 1e-09
CPLEX> New value for deterministic time limit in ticks: 150000
CPLEX> Problem 'C:\Users\llavin\Desktop\test826\logs\tmp8u4fqa_t.pyomo.lp' read.
Read time = 0.53 sec. (28.87 ticks)
CPLEX> MIP start file 'C:\Users\llavin\Desktop\test826\logs\tmp36cxov4t.cplex.mst' read.
CPLEX> Problem name         : C:\Users\llavin\Desktop\test826\logs\tmp8u4fqa_t.pyomo.lp
Objective sense      : Maximize
Variables            :  109223  [Nneg: 1,  Box: 45498,  Free: 8928,
                                 Binary: 54796]
Objective nonzeros   :   18769
Linear constraints   :  246903  [Less: 82866,  Greater: 118424,  Equal: 45613]
  Nonzeros           :  618269
  RHS nonzeros       :  134881

Variables            : Min LB: -100000.0        Max UB: 1000000.       
Objective nonzeros   : Min   : 0.1944444        Max   : 208.3333       
Linear constraints   :
  Nonzeros           : Min   : 0.1944444        Max   : 1000000.       
  RHS nonzeros       : Min   : 0.1944444        Max   : 1000000.       
CPLEX> CPXPARAM_Parallel                                -1
CPXPARAM_Simplex_Tolerances_Feasibility          1.0000000000000001e-09
CPXPARAM_DetTimeLimit                            150000
CPXPARAM_MIP_Tolerances_MIPGap                   0.01
Warning:  No solution found from 1 MIP starts.
Retaining values of one MIP start for possible repair.
Tried aggregator 3 times.
MIP Presolve eliminated 182851 rows and 44101 columns.
MIP Presolve added 5998 rows and 0 columns.
MIP Presolve modified 49692 coefficients.
Aggregator did 25662 substitutions.
Reduced MIP has 44388 rows, 37828 columns, and 122938 nonzeros.
Reduced MIP has 14878 binaries, 0 generals, 0 SOSs, and 0 indicators.
Presolve time = 0.63 sec. (347.19 ticks)
Probing fixed 868 vars, tightened 10178 bounds.
Probing time = 0.36 sec. (13.85 ticks)
Tried aggregator 2 times.
MIP Presolve eliminated 1928 rows and 1736 columns.
MIP Presolve modified 11555 coefficients.
Aggregator did 48 substitutions.
Reduced MIP has 42412 rows, 36044 columns, and 117202 nonzeros.
Reduced MIP has 14010 binaries, 0 generals, 0 SOSs, and 0 indicators.
Presolve time = 0.22 sec. (200.38 ticks)
Probing fixed 0 vars, tightened 4434 bounds.
Probing time = 0.44 sec. (16.28 ticks)
Clique table members: 69751.
MIP emphasis: balance optimality and feasibility.
MIP search method: dynamic search.
Parallel mode: opportunistic, using up to 32 threads.
Root relaxation solution time = 0.88 sec. (1460.93 ticks)

        Nodes                                         Cuts/
   Node  Left     Objective  IInf  Best Integer    Best Bound    ItCnt     Gap

      0     0    12874.2744   245                  12874.2744     7867         
*     0+    0                            0.0000    12874.2744              --- 
      0     0    12780.1562   261        0.0000     Cuts: 409     8363     --- 
      0     0    12780.1562   158        0.0000    Cuts: 1017     8666     --- 
      0     0    12780.1562   142        0.0000     Cuts: 195     8759     --- 
      0     0    12780.1562   141        0.0000   Flowcuts: 3     8761     --- 
Repair heuristic found nothing.
      0     4    infeasible              0.0000    12105.2744     8985     --- 
Elapsed time = 9.39 sec. (5307.14 ticks, tree = 0.02 MB, solutions = 1)
     90     4    10932.2586    39        0.0000      564.1178     9126     --- 
    106     5     9161.4299    32        0.0000      564.1178     9139     --- 
    121     6     7129.3506    24        0.0000      564.1178     9559     --- 
    138     6     2362.5499     8        0.0000      564.1178     9848     --- 
    154     5      564.1178     2        0.0000      564.1178     9950     --- 

Flow cuts applied:  48
Mixed integer rounding cuts applied:  2

Root node processing (before b&c):
  Real time             =    7.20 sec. (5290.77 ticks)
Parallel b&c, 32 threads:
  Real time             =    4.58 sec. (1484.26 ticks)
  Sync time (average)   =    3.22 sec.
  Wait time (average)   =    0.00 sec.
                          ------------
Total (root+branch&cut) =   11.78 sec. (6775.03 ticks)

Solution pool: 1 solution saved.

MIP - Integer optimal solution:  Objective =  0.0000000000e+00
Solution time =   11.80 sec.  Iterations = 10004  Nodes = 163
Deterministic time = 6775.34 ticks  (574.33 ticks/sec)

CPLEX> Incumbent solution written to file 'C:\Users\llavin\Desktop\test826\logs\tmp9s4thu47.cplex.sol'.
CPLEX> Exporting results... 
